(set-logic QF_LRA)
(declare-fun T1 () Real )
(declare-fun T2 () Real )
(declare-fun T3 () Real )
(declare-fun T4 () Real )
(declare-fun T5 () Real )
(declare-fun T6 () Real )
(declare-fun T7 () Real )
(declare-fun T8 () Real )
(declare-fun T9 () Real )
(declare-fun T10 () Real )
(declare-fun Z () Real )
(assert ( and 
(or ( <= ( + T1 66 ) T2 ) ( <= ( + T2 54 ) T1 ) )
(or ( <= ( + T1 115 )  ( + T2 54 ) ) ( <= ( + T2 100 )( + T1 66 ) ) )
(or ( <= ( + T1 144 )  ( + T2 100 ) ) ( <= ( + T2 183 )( + T1 115 ) ) )
(or ( <= ( + T1 199 )  ( + T2 183 ) ) ( <= ( + T2 190 )( + T1 144 ) ) )
(or ( <= ( + T1 247 )  ( + T2 190 ) ) ( <= ( + T2 193 )( + T1 199 ) ) )
(or ( <= ( + T1 282 )  ( + T2 193 ) ) ( <= ( + T2 267 )( + T1 247 ) ) )
(or ( <= ( + T1 320 )  ( + T2 267 ) ) ( <= ( + T2 292 )( + T1 282 ) ) )
(or ( <= ( + T1 325 )  ( + T2 292 ) ) ( <= ( + T2 297 )( + T1 320 ) ) )
(or ( <= ( + T1 363 )  ( + T2 297 ) ) ( <= ( + T2 392 )( + T1 325 ) ) )
(or ( <= ( + T1 422 )  ( + T2 392 ) ) ( <= ( + T2 492 )( + T1 363 ) ) )
(or ( <= ( + T1 491 )  ( + T2 492 ) ) ( <= ( + T2 592 )( + T1 422 ) ) )
(or ( <= ( + T1 510 )  ( + T2 592 ) ) ( <= ( + T2 595 )( + T1 491 ) ) )
(or ( <= ( + T1 66 ) T3 ) ( <= ( + T3 26 ) T1 ) )
(or ( <= ( + T1 115 )  ( + T3 26 ) ) ( <= ( + T3 63 )( + T1 66 ) ) )
(or ( <= ( + T1 144 )  ( + T3 63 ) ) ( <= ( + T3 93 )( + T1 115 ) ) )
(or ( <= ( + T1 199 )  ( + T3 93 ) ) ( <= ( + T3 148 )( + T1 144 ) ) )
(or ( <= ( + T1 247 )  ( + T3 148 ) ) ( <= ( + T3 216 )( + T1 199 ) ) )
(or ( <= ( + T1 282 )  ( + T3 216 ) ) ( <= ( + T3 259 )( + T1 247 ) ) )
(or ( <= ( + T1 320 )  ( + T3 259 ) ) ( <= ( + T3 356 )( + T1 282 ) ) )
(or ( <= ( + T1 325 )  ( + T3 356 ) ) ( <= ( + T3 441 )( + T1 320 ) ) )
(or ( <= ( + T1 363 )  ( + T3 441 ) ) ( <= ( + T3 484 )( + T1 325 ) ) )
(or ( <= ( + T1 422 )  ( + T3 484 ) ) ( <= ( + T3 510 )( + T1 363 ) ) )
(or ( <= ( + T1 491 )  ( + T3 510 ) ) ( <= ( + T3 549 )( + T1 422 ) ) )
(or ( <= ( + T1 510 )  ( + T3 549 ) ) ( <= ( + T3 639 )( + T1 491 ) ) )
(or ( <= ( + T1 66 ) T4 ) ( <= ( + T4 12 ) T1 ) )
(or ( <= ( + T1 115 )  ( + T4 12 ) ) ( <= ( + T4 40 )( + T1 66 ) ) )
(or ( <= ( + T1 144 )  ( + T4 40 ) ) ( <= ( + T4 87 )( + T1 115 ) ) )
(or ( <= ( + T1 199 )  ( + T4 87 ) ) ( <= ( + T4 136 )( + T1 144 ) ) )
(or ( <= ( + T1 247 )  ( + T4 136 ) ) ( <= ( + T4 174 )( + T1 199 ) ) )
(or ( <= ( + T1 282 )  ( + T4 174 ) ) ( <= ( + T4 189 )( + T1 247 ) ) )
(or ( <= ( + T1 320 )  ( + T4 189 ) ) ( <= ( + T4 256 )( + T1 282 ) ) )
(or ( <= ( + T1 325 )  ( + T4 256 ) ) ( <= ( + T4 299 )( + T1 320 ) ) )
(or ( <= ( + T1 363 )  ( + T4 299 ) ) ( <= ( + T4 311 )( + T1 325 ) ) )
(or ( <= ( + T1 422 )  ( + T4 311 ) ) ( <= ( + T4 313 )( + T1 363 ) ) )
(or ( <= ( + T1 491 )  ( + T4 313 ) ) ( <= ( + T4 363 )( + T1 422 ) ) )
(or ( <= ( + T1 510 )  ( + T4 363 ) ) ( <= ( + T4 430 )( + T1 491 ) ) )
(or ( <= ( + T1 66 ) T5 ) ( <= ( + T5 27 ) T1 ) )
(or ( <= ( + T1 115 )  ( + T5 27 ) ) ( <= ( + T5 53 )( + T1 66 ) ) )
(or ( <= ( + T1 144 )  ( + T5 53 ) ) ( <= ( + T5 124 )( + T1 115 ) ) )
(or ( <= ( + T1 199 )  ( + T5 124 ) ) ( <= ( + T5 145 )( + T1 144 ) ) )
(or ( <= ( + T1 247 )  ( + T5 145 ) ) ( <= ( + T5 223 )( + T1 199 ) ) )
(or ( <= ( + T1 282 )  ( + T5 223 ) ) ( <= ( + T5 245 )( + T1 247 ) ) )
(or ( <= ( + T1 320 )  ( + T5 245 ) ) ( <= ( + T5 321 )( + T1 282 ) ) )
(or ( <= ( + T1 325 )  ( + T5 321 ) ) ( <= ( + T5 376 )( + T1 320 ) ) )
(or ( <= ( + T1 363 )  ( + T5 376 ) ) ( <= ( + T5 386 )( + T1 325 ) ) )
(or ( <= ( + T1 422 )  ( + T5 386 ) ) ( <= ( + T5 391 )( + T1 363 ) ) )
(or ( <= ( + T1 491 )  ( + T5 391 ) ) ( <= ( + T5 400 )( + T1 422 ) ) )
(or ( <= ( + T1 510 )  ( + T5 400 ) ) ( <= ( + T5 478 )( + T1 491 ) ) )
(or ( <= ( + T1 66 ) T6 ) ( <= ( + T6 99 ) T1 ) )
(or ( <= ( + T1 115 )  ( + T6 99 ) ) ( <= ( + T6 157 )( + T1 66 ) ) )
(or ( <= ( + T1 144 )  ( + T6 157 ) ) ( <= ( + T6 171 )( + T1 115 ) ) )
(or ( <= ( + T1 199 )  ( + T6 171 ) ) ( <= ( + T6 265 )( + T1 144 ) ) )
(or ( <= ( + T1 247 )  ( + T6 265 ) ) ( <= ( + T6 348 )( + T1 199 ) ) )
(or ( <= ( + T1 282 )  ( + T6 348 ) ) ( <= ( + T6 353 )( + T1 247 ) ) )
(or ( <= ( + T1 320 )  ( + T6 353 ) ) ( <= ( + T6 388 )( + T1 282 ) ) )
(or ( <= ( + T1 325 )  ( + T6 388 ) ) ( <= ( + T6 482 )( + T1 320 ) ) )
(or ( <= ( + T1 363 )  ( + T6 482 ) ) ( <= ( + T6 514 )( + T1 325 ) ) )
(or ( <= ( + T1 422 )  ( + T6 514 ) ) ( <= ( + T6 595 )( + T1 363 ) ) )
(or ( <= ( + T1 491 )  ( + T6 595 ) ) ( <= ( + T6 690 )( + T1 422 ) ) )
(or ( <= ( + T1 510 )  ( + T6 690 ) ) ( <= ( + T6 760 )( + T1 491 ) ) )
(or ( <= ( + T1 66 ) T7 ) ( <= ( + T7 96 ) T1 ) )
(or ( <= ( + T1 115 )  ( + T7 96 ) ) ( <= ( + T7 157 )( + T1 66 ) ) )
(or ( <= ( + T1 144 )  ( + T7 157 ) ) ( <= ( + T7 169 )( + T1 115 ) ) )
(or ( <= ( + T1 199 )  ( + T7 169 ) ) ( <= ( + T7 176 )( + T1 144 ) ) )
(or ( <= ( + T1 247 )  ( + T7 176 ) ) ( <= ( + T7 190 )( + T1 199 ) ) )
(or ( <= ( + T1 282 )  ( + T7 190 ) ) ( <= ( + T7 203 )( + T1 247 ) ) )
(or ( <= ( + T1 320 )  ( + T7 203 ) ) ( <= ( + T7 228 )( + T1 282 ) ) )
(or ( <= ( + T1 325 )  ( + T7 228 ) ) ( <= ( + T7 269 )( + T1 320 ) ) )
(or ( <= ( + T1 363 )  ( + T7 269 ) ) ( <= ( + T7 360 )( + T1 325 ) ) )
(or ( <= ( + T1 422 )  ( + T7 360 ) ) ( <= ( + T7 408 )( + T1 363 ) ) )
(or ( <= ( + T1 491 )  ( + T7 408 ) ) ( <= ( + T7 469 )( + T1 422 ) ) )
(or ( <= ( + T1 510 )  ( + T7 469 ) ) ( <= ( + T7 537 )( + T1 491 ) ) )
(or ( <= ( + T1 66 ) T8 ) ( <= ( + T8 69 ) T1 ) )
(or ( <= ( + T1 115 )  ( + T8 69 ) ) ( <= ( + T8 157 )( + T1 66 ) ) )
(or ( <= ( + T1 144 )  ( + T8 157 ) ) ( <= ( + T8 231 )( + T1 115 ) ) )
(or ( <= ( + T1 199 )  ( + T8 231 ) ) ( <= ( + T8 310 )( + T1 144 ) ) )
(or ( <= ( + T1 247 )  ( + T8 310 ) ) ( <= ( + T8 403 )( + T1 199 ) ) )
(or ( <= ( + T1 282 )  ( + T8 403 ) ) ( <= ( + T8 485 )( + T1 247 ) ) )
(or ( <= ( + T1 320 )  ( + T8 485 ) ) ( <= ( + T8 493 )( + T1 282 ) ) )
(or ( <= ( + T1 325 )  ( + T8 493 ) ) ( <= ( + T8 584 )( + T1 320 ) ) )
(or ( <= ( + T1 363 )  ( + T8 584 ) ) ( <= ( + T8 675 )( + T1 325 ) ) )
(or ( <= ( + T1 422 )  ( + T8 675 ) ) ( <= ( + T8 748 )( + T1 363 ) ) )
(or ( <= ( + T1 491 )  ( + T8 748 ) ) ( <= ( + T8 832 )( + T1 422 ) ) )
(or ( <= ( + T1 510 )  ( + T8 832 ) ) ( <= ( + T8 905 )( + T1 491 ) ) )
(or ( <= ( + T1 66 ) T9 ) ( <= ( + T9 77 ) T1 ) )
(or ( <= ( + T1 115 )  ( + T9 77 ) ) ( <= ( + T9 148 )( + T1 66 ) ) )
(or ( <= ( + T1 144 )  ( + T9 148 ) ) ( <= ( + T9 167 )( + T1 115 ) ) )
(or ( <= ( + T1 199 )  ( + T9 167 ) ) ( <= ( + T9 176 )( + T1 144 ) ) )
(or ( <= ( + T1 247 )  ( + T9 176 ) ) ( <= ( + T9 227 )( + T1 199 ) ) )
(or ( <= ( + T1 282 )  ( + T9 227 ) ) ( <= ( + T9 292 )( + T1 247 ) ) )
(or ( <= ( + T1 320 )  ( + T9 292 ) ) ( <= ( + T9 322 )( + T1 282 ) ) )
(or ( <= ( + T1 325 )  ( + T9 322 ) ) ( <= ( + T9 368 )( + T1 320 ) ) )
(or ( <= ( + T1 363 )  ( + T9 368 ) ) ( <= ( + T9 393 )( + T1 325 ) ) )
(or ( <= ( + T1 422 )  ( + T9 393 ) ) ( <= ( + T9 486 )( + T1 363 ) ) )
(or ( <= ( + T1 491 )  ( + T9 486 ) ) ( <= ( + T9 491 )( + T1 422 ) ) )
(or ( <= ( + T1 510 )  ( + T9 491 ) ) ( <= ( + T9 582 )( + T1 491 ) ) )
(or ( <= ( + T1 66 ) T10 ) ( <= ( + T10 58 ) T1 ) )
(or ( <= ( + T1 115 )  ( + T10 58 ) ) ( <= ( + T10 87 )( + T1 66 ) ) )
(or ( <= ( + T1 144 )  ( + T10 87 ) ) ( <= ( + T10 118 )( + T1 115 ) ) )
(or ( <= ( + T1 199 )  ( + T10 118 ) ) ( <= ( + T10 166 )( + T1 144 ) ) )
(or ( <= ( + T1 247 )  ( + T10 166 ) ) ( <= ( + T10 194 )( + T1 199 ) ) )
(or ( <= ( + T1 282 )  ( + T10 194 ) ) ( <= ( + T10 237 )( + T1 247 ) ) )
(or ( <= ( + T1 320 )  ( + T10 237 ) ) ( <= ( + T10 304 )( + T1 282 ) ) )
(or ( <= ( + T1 325 )  ( + T10 304 ) ) ( <= ( + T10 401 )( + T1 320 ) ) )
(or ( <= ( + T1 363 )  ( + T10 401 ) ) ( <= ( + T10 432 )( + T1 325 ) ) )
(or ( <= ( + T1 422 )  ( + T10 432 ) ) ( <= ( + T10 472 )( + T1 363 ) ) )
(or ( <= ( + T1 491 )  ( + T10 472 ) ) ( <= ( + T10 499 )( + T1 422 ) ) )
(or ( <= ( + T1 510 )  ( + T10 499 ) ) ( <= ( + T10 522 )( + T1 491 ) ) )
(or ( <= ( + T2 54 ) T3 ) ( <= ( + T3 26 ) T2 ) )
(or ( <= ( + T2 100 )  ( + T3 26 ) ) ( <= ( + T3 63 )( + T2 54 ) ) )
(or ( <= ( + T2 183 )  ( + T3 63 ) ) ( <= ( + T3 93 )( + T2 100 ) ) )
(or ( <= ( + T2 190 )  ( + T3 93 ) ) ( <= ( + T3 148 )( + T2 183 ) ) )
(or ( <= ( + T2 193 )  ( + T3 148 ) ) ( <= ( + T3 216 )( + T2 190 ) ) )
(or ( <= ( + T2 267 )  ( + T3 216 ) ) ( <= ( + T3 259 )( + T2 193 ) ) )
(or ( <= ( + T2 292 )  ( + T3 259 ) ) ( <= ( + T3 356 )( + T2 267 ) ) )
(or ( <= ( + T2 297 )  ( + T3 356 ) ) ( <= ( + T3 441 )( + T2 292 ) ) )
(or ( <= ( + T2 392 )  ( + T3 441 ) ) ( <= ( + T3 484 )( + T2 297 ) ) )
(or ( <= ( + T2 492 )  ( + T3 484 ) ) ( <= ( + T3 510 )( + T2 392 ) ) )
(or ( <= ( + T2 592 )  ( + T3 510 ) ) ( <= ( + T3 549 )( + T2 492 ) ) )
(or ( <= ( + T2 595 )  ( + T3 549 ) ) ( <= ( + T3 639 )( + T2 592 ) ) )
(or ( <= ( + T2 54 ) T4 ) ( <= ( + T4 12 ) T2 ) )
(or ( <= ( + T2 100 )  ( + T4 12 ) ) ( <= ( + T4 40 )( + T2 54 ) ) )
(or ( <= ( + T2 183 )  ( + T4 40 ) ) ( <= ( + T4 87 )( + T2 100 ) ) )
(or ( <= ( + T2 190 )  ( + T4 87 ) ) ( <= ( + T4 136 )( + T2 183 ) ) )
(or ( <= ( + T2 193 )  ( + T4 136 ) ) ( <= ( + T4 174 )( + T2 190 ) ) )
(or ( <= ( + T2 267 )  ( + T4 174 ) ) ( <= ( + T4 189 )( + T2 193 ) ) )
(or ( <= ( + T2 292 )  ( + T4 189 ) ) ( <= ( + T4 256 )( + T2 267 ) ) )
(or ( <= ( + T2 297 )  ( + T4 256 ) ) ( <= ( + T4 299 )( + T2 292 ) ) )
(or ( <= ( + T2 392 )  ( + T4 299 ) ) ( <= ( + T4 311 )( + T2 297 ) ) )
(or ( <= ( + T2 492 )  ( + T4 311 ) ) ( <= ( + T4 313 )( + T2 392 ) ) )
(or ( <= ( + T2 592 )  ( + T4 313 ) ) ( <= ( + T4 363 )( + T2 492 ) ) )
(or ( <= ( + T2 595 )  ( + T4 363 ) ) ( <= ( + T4 430 )( + T2 592 ) ) )
(or ( <= ( + T2 54 ) T5 ) ( <= ( + T5 27 ) T2 ) )
(or ( <= ( + T2 100 )  ( + T5 27 ) ) ( <= ( + T5 53 )( + T2 54 ) ) )
(or ( <= ( + T2 183 )  ( + T5 53 ) ) ( <= ( + T5 124 )( + T2 100 ) ) )
(or ( <= ( + T2 190 )  ( + T5 124 ) ) ( <= ( + T5 145 )( + T2 183 ) ) )
(or ( <= ( + T2 193 )  ( + T5 145 ) ) ( <= ( + T5 223 )( + T2 190 ) ) )
(or ( <= ( + T2 267 )  ( + T5 223 ) ) ( <= ( + T5 245 )( + T2 193 ) ) )
(or ( <= ( + T2 292 )  ( + T5 245 ) ) ( <= ( + T5 321 )( + T2 267 ) ) )
(or ( <= ( + T2 297 )  ( + T5 321 ) ) ( <= ( + T5 376 )( + T2 292 ) ) )
(or ( <= ( + T2 392 )  ( + T5 376 ) ) ( <= ( + T5 386 )( + T2 297 ) ) )
(or ( <= ( + T2 492 )  ( + T5 386 ) ) ( <= ( + T5 391 )( + T2 392 ) ) )
(or ( <= ( + T2 592 )  ( + T5 391 ) ) ( <= ( + T5 400 )( + T2 492 ) ) )
(or ( <= ( + T2 595 )  ( + T5 400 ) ) ( <= ( + T5 478 )( + T2 592 ) ) )
(or ( <= ( + T2 54 ) T6 ) ( <= ( + T6 99 ) T2 ) )
(or ( <= ( + T2 100 )  ( + T6 99 ) ) ( <= ( + T6 157 )( + T2 54 ) ) )
(or ( <= ( + T2 183 )  ( + T6 157 ) ) ( <= ( + T6 171 )( + T2 100 ) ) )
(or ( <= ( + T2 190 )  ( + T6 171 ) ) ( <= ( + T6 265 )( + T2 183 ) ) )
(or ( <= ( + T2 193 )  ( + T6 265 ) ) ( <= ( + T6 348 )( + T2 190 ) ) )
(or ( <= ( + T2 267 )  ( + T6 348 ) ) ( <= ( + T6 353 )( + T2 193 ) ) )
(or ( <= ( + T2 292 )  ( + T6 353 ) ) ( <= ( + T6 388 )( + T2 267 ) ) )
(or ( <= ( + T2 297 )  ( + T6 388 ) ) ( <= ( + T6 482 )( + T2 292 ) ) )
(or ( <= ( + T2 392 )  ( + T6 482 ) ) ( <= ( + T6 514 )( + T2 297 ) ) )
(or ( <= ( + T2 492 )  ( + T6 514 ) ) ( <= ( + T6 595 )( + T2 392 ) ) )
(or ( <= ( + T2 592 )  ( + T6 595 ) ) ( <= ( + T6 690 )( + T2 492 ) ) )
(or ( <= ( + T2 595 )  ( + T6 690 ) ) ( <= ( + T6 760 )( + T2 592 ) ) )
(or ( <= ( + T2 54 ) T7 ) ( <= ( + T7 96 ) T2 ) )
(or ( <= ( + T2 100 )  ( + T7 96 ) ) ( <= ( + T7 157 )( + T2 54 ) ) )
(or ( <= ( + T2 183 )  ( + T7 157 ) ) ( <= ( + T7 169 )( + T2 100 ) ) )
(or ( <= ( + T2 190 )  ( + T7 169 ) ) ( <= ( + T7 176 )( + T2 183 ) ) )
(or ( <= ( + T2 193 )  ( + T7 176 ) ) ( <= ( + T7 190 )( + T2 190 ) ) )
(or ( <= ( + T2 267 )  ( + T7 190 ) ) ( <= ( + T7 203 )( + T2 193 ) ) )
(or ( <= ( + T2 292 )  ( + T7 203 ) ) ( <= ( + T7 228 )( + T2 267 ) ) )
(or ( <= ( + T2 297 )  ( + T7 228 ) ) ( <= ( + T7 269 )( + T2 292 ) ) )
(or ( <= ( + T2 392 )  ( + T7 269 ) ) ( <= ( + T7 360 )( + T2 297 ) ) )
(or ( <= ( + T2 492 )  ( + T7 360 ) ) ( <= ( + T7 408 )( + T2 392 ) ) )
(or ( <= ( + T2 592 )  ( + T7 408 ) ) ( <= ( + T7 469 )( + T2 492 ) ) )
(or ( <= ( + T2 595 )  ( + T7 469 ) ) ( <= ( + T7 537 )( + T2 592 ) ) )
(or ( <= ( + T2 54 ) T8 ) ( <= ( + T8 69 ) T2 ) )
(or ( <= ( + T2 100 )  ( + T8 69 ) ) ( <= ( + T8 157 )( + T2 54 ) ) )
(or ( <= ( + T2 183 )  ( + T8 157 ) ) ( <= ( + T8 231 )( + T2 100 ) ) )
(or ( <= ( + T2 190 )  ( + T8 231 ) ) ( <= ( + T8 310 )( + T2 183 ) ) )
(or ( <= ( + T2 193 )  ( + T8 310 ) ) ( <= ( + T8 403 )( + T2 190 ) ) )
(or ( <= ( + T2 267 )  ( + T8 403 ) ) ( <= ( + T8 485 )( + T2 193 ) ) )
(or ( <= ( + T2 292 )  ( + T8 485 ) ) ( <= ( + T8 493 )( + T2 267 ) ) )
(or ( <= ( + T2 297 )  ( + T8 493 ) ) ( <= ( + T8 584 )( + T2 292 ) ) )
(or ( <= ( + T2 392 )  ( + T8 584 ) ) ( <= ( + T8 675 )( + T2 297 ) ) )
(or ( <= ( + T2 492 )  ( + T8 675 ) ) ( <= ( + T8 748 )( + T2 392 ) ) )
(or ( <= ( + T2 592 )  ( + T8 748 ) ) ( <= ( + T8 832 )( + T2 492 ) ) )
(or ( <= ( + T2 595 )  ( + T8 832 ) ) ( <= ( + T8 905 )( + T2 592 ) ) )
(or ( <= ( + T2 54 ) T9 ) ( <= ( + T9 77 ) T2 ) )
(or ( <= ( + T2 100 )  ( + T9 77 ) ) ( <= ( + T9 148 )( + T2 54 ) ) )
(or ( <= ( + T2 183 )  ( + T9 148 ) ) ( <= ( + T9 167 )( + T2 100 ) ) )
(or ( <= ( + T2 190 )  ( + T9 167 ) ) ( <= ( + T9 176 )( + T2 183 ) ) )
(or ( <= ( + T2 193 )  ( + T9 176 ) ) ( <= ( + T9 227 )( + T2 190 ) ) )
(or ( <= ( + T2 267 )  ( + T9 227 ) ) ( <= ( + T9 292 )( + T2 193 ) ) )
(or ( <= ( + T2 292 )  ( + T9 292 ) ) ( <= ( + T9 322 )( + T2 267 ) ) )
(or ( <= ( + T2 297 )  ( + T9 322 ) ) ( <= ( + T9 368 )( + T2 292 ) ) )
(or ( <= ( + T2 392 )  ( + T9 368 ) ) ( <= ( + T9 393 )( + T2 297 ) ) )
(or ( <= ( + T2 492 )  ( + T9 393 ) ) ( <= ( + T9 486 )( + T2 392 ) ) )
(or ( <= ( + T2 592 )  ( + T9 486 ) ) ( <= ( + T9 491 )( + T2 492 ) ) )
(or ( <= ( + T2 595 )  ( + T9 491 ) ) ( <= ( + T9 582 )( + T2 592 ) ) )
(or ( <= ( + T2 54 ) T10 ) ( <= ( + T10 58 ) T2 ) )
(or ( <= ( + T2 100 )  ( + T10 58 ) ) ( <= ( + T10 87 )( + T2 54 ) ) )
(or ( <= ( + T2 183 )  ( + T10 87 ) ) ( <= ( + T10 118 )( + T2 100 ) ) )
(or ( <= ( + T2 190 )  ( + T10 118 ) ) ( <= ( + T10 166 )( + T2 183 ) ) )
(or ( <= ( + T2 193 )  ( + T10 166 ) ) ( <= ( + T10 194 )( + T2 190 ) ) )
(or ( <= ( + T2 267 )  ( + T10 194 ) ) ( <= ( + T10 237 )( + T2 193 ) ) )
(or ( <= ( + T2 292 )  ( + T10 237 ) ) ( <= ( + T10 304 )( + T2 267 ) ) )
(or ( <= ( + T2 297 )  ( + T10 304 ) ) ( <= ( + T10 401 )( + T2 292 ) ) )
(or ( <= ( + T2 392 )  ( + T10 401 ) ) ( <= ( + T10 432 )( + T2 297 ) ) )
(or ( <= ( + T2 492 )  ( + T10 432 ) ) ( <= ( + T10 472 )( + T2 392 ) ) )
(or ( <= ( + T2 592 )  ( + T10 472 ) ) ( <= ( + T10 499 )( + T2 492 ) ) )
(or ( <= ( + T2 595 )  ( + T10 499 ) ) ( <= ( + T10 522 )( + T2 592 ) ) )
(or ( <= ( + T3 26 ) T4 ) ( <= ( + T4 12 ) T3 ) )
(or ( <= ( + T3 63 )  ( + T4 12 ) ) ( <= ( + T4 40 )( + T3 26 ) ) )
(or ( <= ( + T3 93 )  ( + T4 40 ) ) ( <= ( + T4 87 )( + T3 63 ) ) )
(or ( <= ( + T3 148 )  ( + T4 87 ) ) ( <= ( + T4 136 )( + T3 93 ) ) )
(or ( <= ( + T3 216 )  ( + T4 136 ) ) ( <= ( + T4 174 )( + T3 148 ) ) )
(or ( <= ( + T3 259 )  ( + T4 174 ) ) ( <= ( + T4 189 )( + T3 216 ) ) )
(or ( <= ( + T3 356 )  ( + T4 189 ) ) ( <= ( + T4 256 )( + T3 259 ) ) )
(or ( <= ( + T3 441 )  ( + T4 256 ) ) ( <= ( + T4 299 )( + T3 356 ) ) )
(or ( <= ( + T3 484 )  ( + T4 299 ) ) ( <= ( + T4 311 )( + T3 441 ) ) )
(or ( <= ( + T3 510 )  ( + T4 311 ) ) ( <= ( + T4 313 )( + T3 484 ) ) )
(or ( <= ( + T3 549 )  ( + T4 313 ) ) ( <= ( + T4 363 )( + T3 510 ) ) )
(or ( <= ( + T3 639 )  ( + T4 363 ) ) ( <= ( + T4 430 )( + T3 549 ) ) )
(or ( <= ( + T3 26 ) T5 ) ( <= ( + T5 27 ) T3 ) )
(or ( <= ( + T3 63 )  ( + T5 27 ) ) ( <= ( + T5 53 )( + T3 26 ) ) )
(or ( <= ( + T3 93 )  ( + T5 53 ) ) ( <= ( + T5 124 )( + T3 63 ) ) )
(or ( <= ( + T3 148 )  ( + T5 124 ) ) ( <= ( + T5 145 )( + T3 93 ) ) )
(or ( <= ( + T3 216 )  ( + T5 145 ) ) ( <= ( + T5 223 )( + T3 148 ) ) )
(or ( <= ( + T3 259 )  ( + T5 223 ) ) ( <= ( + T5 245 )( + T3 216 ) ) )
(or ( <= ( + T3 356 )  ( + T5 245 ) ) ( <= ( + T5 321 )( + T3 259 ) ) )
(or ( <= ( + T3 441 )  ( + T5 321 ) ) ( <= ( + T5 376 )( + T3 356 ) ) )
(or ( <= ( + T3 484 )  ( + T5 376 ) ) ( <= ( + T5 386 )( + T3 441 ) ) )
(or ( <= ( + T3 510 )  ( + T5 386 ) ) ( <= ( + T5 391 )( + T3 484 ) ) )
(or ( <= ( + T3 549 )  ( + T5 391 ) ) ( <= ( + T5 400 )( + T3 510 ) ) )
(or ( <= ( + T3 639 )  ( + T5 400 ) ) ( <= ( + T5 478 )( + T3 549 ) ) )
(or ( <= ( + T3 26 ) T6 ) ( <= ( + T6 99 ) T3 ) )
(or ( <= ( + T3 63 )  ( + T6 99 ) ) ( <= ( + T6 157 )( + T3 26 ) ) )
(or ( <= ( + T3 93 )  ( + T6 157 ) ) ( <= ( + T6 171 )( + T3 63 ) ) )
(or ( <= ( + T3 148 )  ( + T6 171 ) ) ( <= ( + T6 265 )( + T3 93 ) ) )
(or ( <= ( + T3 216 )  ( + T6 265 ) ) ( <= ( + T6 348 )( + T3 148 ) ) )
(or ( <= ( + T3 259 )  ( + T6 348 ) ) ( <= ( + T6 353 )( + T3 216 ) ) )
(or ( <= ( + T3 356 )  ( + T6 353 ) ) ( <= ( + T6 388 )( + T3 259 ) ) )
(or ( <= ( + T3 441 )  ( + T6 388 ) ) ( <= ( + T6 482 )( + T3 356 ) ) )
(or ( <= ( + T3 484 )  ( + T6 482 ) ) ( <= ( + T6 514 )( + T3 441 ) ) )
(or ( <= ( + T3 510 )  ( + T6 514 ) ) ( <= ( + T6 595 )( + T3 484 ) ) )
(or ( <= ( + T3 549 )  ( + T6 595 ) ) ( <= ( + T6 690 )( + T3 510 ) ) )
(or ( <= ( + T3 639 )  ( + T6 690 ) ) ( <= ( + T6 760 )( + T3 549 ) ) )
(or ( <= ( + T3 26 ) T7 ) ( <= ( + T7 96 ) T3 ) )
(or ( <= ( + T3 63 )  ( + T7 96 ) ) ( <= ( + T7 157 )( + T3 26 ) ) )
(or ( <= ( + T3 93 )  ( + T7 157 ) ) ( <= ( + T7 169 )( + T3 63 ) ) )
(or ( <= ( + T3 148 )  ( + T7 169 ) ) ( <= ( + T7 176 )( + T3 93 ) ) )
(or ( <= ( + T3 216 )  ( + T7 176 ) ) ( <= ( + T7 190 )( + T3 148 ) ) )
(or ( <= ( + T3 259 )  ( + T7 190 ) ) ( <= ( + T7 203 )( + T3 216 ) ) )
(or ( <= ( + T3 356 )  ( + T7 203 ) ) ( <= ( + T7 228 )( + T3 259 ) ) )
(or ( <= ( + T3 441 )  ( + T7 228 ) ) ( <= ( + T7 269 )( + T3 356 ) ) )
(or ( <= ( + T3 484 )  ( + T7 269 ) ) ( <= ( + T7 360 )( + T3 441 ) ) )
(or ( <= ( + T3 510 )  ( + T7 360 ) ) ( <= ( + T7 408 )( + T3 484 ) ) )
(or ( <= ( + T3 549 )  ( + T7 408 ) ) ( <= ( + T7 469 )( + T3 510 ) ) )
(or ( <= ( + T3 639 )  ( + T7 469 ) ) ( <= ( + T7 537 )( + T3 549 ) ) )
(or ( <= ( + T3 26 ) T8 ) ( <= ( + T8 69 ) T3 ) )
(or ( <= ( + T3 63 )  ( + T8 69 ) ) ( <= ( + T8 157 )( + T3 26 ) ) )
(or ( <= ( + T3 93 )  ( + T8 157 ) ) ( <= ( + T8 231 )( + T3 63 ) ) )
(or ( <= ( + T3 148 )  ( + T8 231 ) ) ( <= ( + T8 310 )( + T3 93 ) ) )
(or ( <= ( + T3 216 )  ( + T8 310 ) ) ( <= ( + T8 403 )( + T3 148 ) ) )
(or ( <= ( + T3 259 )  ( + T8 403 ) ) ( <= ( + T8 485 )( + T3 216 ) ) )
(or ( <= ( + T3 356 )  ( + T8 485 ) ) ( <= ( + T8 493 )( + T3 259 ) ) )
(or ( <= ( + T3 441 )  ( + T8 493 ) ) ( <= ( + T8 584 )( + T3 356 ) ) )
(or ( <= ( + T3 484 )  ( + T8 584 ) ) ( <= ( + T8 675 )( + T3 441 ) ) )
(or ( <= ( + T3 510 )  ( + T8 675 ) ) ( <= ( + T8 748 )( + T3 484 ) ) )
(or ( <= ( + T3 549 )  ( + T8 748 ) ) ( <= ( + T8 832 )( + T3 510 ) ) )
(or ( <= ( + T3 639 )  ( + T8 832 ) ) ( <= ( + T8 905 )( + T3 549 ) ) )
(or ( <= ( + T3 26 ) T9 ) ( <= ( + T9 77 ) T3 ) )
(or ( <= ( + T3 63 )  ( + T9 77 ) ) ( <= ( + T9 148 )( + T3 26 ) ) )
(or ( <= ( + T3 93 )  ( + T9 148 ) ) ( <= ( + T9 167 )( + T3 63 ) ) )
(or ( <= ( + T3 148 )  ( + T9 167 ) ) ( <= ( + T9 176 )( + T3 93 ) ) )
(or ( <= ( + T3 216 )  ( + T9 176 ) ) ( <= ( + T9 227 )( + T3 148 ) ) )
(or ( <= ( + T3 259 )  ( + T9 227 ) ) ( <= ( + T9 292 )( + T3 216 ) ) )
(or ( <= ( + T3 356 )  ( + T9 292 ) ) ( <= ( + T9 322 )( + T3 259 ) ) )
(or ( <= ( + T3 441 )  ( + T9 322 ) ) ( <= ( + T9 368 )( + T3 356 ) ) )
(or ( <= ( + T3 484 )  ( + T9 368 ) ) ( <= ( + T9 393 )( + T3 441 ) ) )
(or ( <= ( + T3 510 )  ( + T9 393 ) ) ( <= ( + T9 486 )( + T3 484 ) ) )
(or ( <= ( + T3 549 )  ( + T9 486 ) ) ( <= ( + T9 491 )( + T3 510 ) ) )
(or ( <= ( + T3 639 )  ( + T9 491 ) ) ( <= ( + T9 582 )( + T3 549 ) ) )
(or ( <= ( + T3 26 ) T10 ) ( <= ( + T10 58 ) T3 ) )
(or ( <= ( + T3 63 )  ( + T10 58 ) ) ( <= ( + T10 87 )( + T3 26 ) ) )
(or ( <= ( + T3 93 )  ( + T10 87 ) ) ( <= ( + T10 118 )( + T3 63 ) ) )
(or ( <= ( + T3 148 )  ( + T10 118 ) ) ( <= ( + T10 166 )( + T3 93 ) ) )
(or ( <= ( + T3 216 )  ( + T10 166 ) ) ( <= ( + T10 194 )( + T3 148 ) ) )
(or ( <= ( + T3 259 )  ( + T10 194 ) ) ( <= ( + T10 237 )( + T3 216 ) ) )
(or ( <= ( + T3 356 )  ( + T10 237 ) ) ( <= ( + T10 304 )( + T3 259 ) ) )
(or ( <= ( + T3 441 )  ( + T10 304 ) ) ( <= ( + T10 401 )( + T3 356 ) ) )
(or ( <= ( + T3 484 )  ( + T10 401 ) ) ( <= ( + T10 432 )( + T3 441 ) ) )
(or ( <= ( + T3 510 )  ( + T10 432 ) ) ( <= ( + T10 472 )( + T3 484 ) ) )
(or ( <= ( + T3 549 )  ( + T10 472 ) ) ( <= ( + T10 499 )( + T3 510 ) ) )
(or ( <= ( + T3 639 )  ( + T10 499 ) ) ( <= ( + T10 522 )( + T3 549 ) ) )
(or ( <= ( + T4 12 ) T5 ) ( <= ( + T5 27 ) T4 ) )
(or ( <= ( + T4 40 )  ( + T5 27 ) ) ( <= ( + T5 53 )( + T4 12 ) ) )
(or ( <= ( + T4 87 )  ( + T5 53 ) ) ( <= ( + T5 124 )( + T4 40 ) ) )
(or ( <= ( + T4 136 )  ( + T5 124 ) ) ( <= ( + T5 145 )( + T4 87 ) ) )
(or ( <= ( + T4 174 )  ( + T5 145 ) ) ( <= ( + T5 223 )( + T4 136 ) ) )
(or ( <= ( + T4 189 )  ( + T5 223 ) ) ( <= ( + T5 245 )( + T4 174 ) ) )
(or ( <= ( + T4 256 )  ( + T5 245 ) ) ( <= ( + T5 321 )( + T4 189 ) ) )
(or ( <= ( + T4 299 )  ( + T5 321 ) ) ( <= ( + T5 376 )( + T4 256 ) ) )
(or ( <= ( + T4 311 )  ( + T5 376 ) ) ( <= ( + T5 386 )( + T4 299 ) ) )
(or ( <= ( + T4 313 )  ( + T5 386 ) ) ( <= ( + T5 391 )( + T4 311 ) ) )
(or ( <= ( + T4 363 )  ( + T5 391 ) ) ( <= ( + T5 400 )( + T4 313 ) ) )
(or ( <= ( + T4 430 )  ( + T5 400 ) ) ( <= ( + T5 478 )( + T4 363 ) ) )
(or ( <= ( + T4 12 ) T6 ) ( <= ( + T6 99 ) T4 ) )
(or ( <= ( + T4 40 )  ( + T6 99 ) ) ( <= ( + T6 157 )( + T4 12 ) ) )
(or ( <= ( + T4 87 )  ( + T6 157 ) ) ( <= ( + T6 171 )( + T4 40 ) ) )
(or ( <= ( + T4 136 )  ( + T6 171 ) ) ( <= ( + T6 265 )( + T4 87 ) ) )
(or ( <= ( + T4 174 )  ( + T6 265 ) ) ( <= ( + T6 348 )( + T4 136 ) ) )
(or ( <= ( + T4 189 )  ( + T6 348 ) ) ( <= ( + T6 353 )( + T4 174 ) ) )
(or ( <= ( + T4 256 )  ( + T6 353 ) ) ( <= ( + T6 388 )( + T4 189 ) ) )
(or ( <= ( + T4 299 )  ( + T6 388 ) ) ( <= ( + T6 482 )( + T4 256 ) ) )
(or ( <= ( + T4 311 )  ( + T6 482 ) ) ( <= ( + T6 514 )( + T4 299 ) ) )
(or ( <= ( + T4 313 )  ( + T6 514 ) ) ( <= ( + T6 595 )( + T4 311 ) ) )
(or ( <= ( + T4 363 )  ( + T6 595 ) ) ( <= ( + T6 690 )( + T4 313 ) ) )
(or ( <= ( + T4 430 )  ( + T6 690 ) ) ( <= ( + T6 760 )( + T4 363 ) ) )
(or ( <= ( + T4 12 ) T7 ) ( <= ( + T7 96 ) T4 ) )
(or ( <= ( + T4 40 )  ( + T7 96 ) ) ( <= ( + T7 157 )( + T4 12 ) ) )
(or ( <= ( + T4 87 )  ( + T7 157 ) ) ( <= ( + T7 169 )( + T4 40 ) ) )
(or ( <= ( + T4 136 )  ( + T7 169 ) ) ( <= ( + T7 176 )( + T4 87 ) ) )
(or ( <= ( + T4 174 )  ( + T7 176 ) ) ( <= ( + T7 190 )( + T4 136 ) ) )
(or ( <= ( + T4 189 )  ( + T7 190 ) ) ( <= ( + T7 203 )( + T4 174 ) ) )
(or ( <= ( + T4 256 )  ( + T7 203 ) ) ( <= ( + T7 228 )( + T4 189 ) ) )
(or ( <= ( + T4 299 )  ( + T7 228 ) ) ( <= ( + T7 269 )( + T4 256 ) ) )
(or ( <= ( + T4 311 )  ( + T7 269 ) ) ( <= ( + T7 360 )( + T4 299 ) ) )
(or ( <= ( + T4 313 )  ( + T7 360 ) ) ( <= ( + T7 408 )( + T4 311 ) ) )
(or ( <= ( + T4 363 )  ( + T7 408 ) ) ( <= ( + T7 469 )( + T4 313 ) ) )
(or ( <= ( + T4 430 )  ( + T7 469 ) ) ( <= ( + T7 537 )( + T4 363 ) ) )
(or ( <= ( + T4 12 ) T8 ) ( <= ( + T8 69 ) T4 ) )
(or ( <= ( + T4 40 )  ( + T8 69 ) ) ( <= ( + T8 157 )( + T4 12 ) ) )
(or ( <= ( + T4 87 )  ( + T8 157 ) ) ( <= ( + T8 231 )( + T4 40 ) ) )
(or ( <= ( + T4 136 )  ( + T8 231 ) ) ( <= ( + T8 310 )( + T4 87 ) ) )
(or ( <= ( + T4 174 )  ( + T8 310 ) ) ( <= ( + T8 403 )( + T4 136 ) ) )
(or ( <= ( + T4 189 )  ( + T8 403 ) ) ( <= ( + T8 485 )( + T4 174 ) ) )
(or ( <= ( + T4 256 )  ( + T8 485 ) ) ( <= ( + T8 493 )( + T4 189 ) ) )
(or ( <= ( + T4 299 )  ( + T8 493 ) ) ( <= ( + T8 584 )( + T4 256 ) ) )
(or ( <= ( + T4 311 )  ( + T8 584 ) ) ( <= ( + T8 675 )( + T4 299 ) ) )
(or ( <= ( + T4 313 )  ( + T8 675 ) ) ( <= ( + T8 748 )( + T4 311 ) ) )
(or ( <= ( + T4 363 )  ( + T8 748 ) ) ( <= ( + T8 832 )( + T4 313 ) ) )
(or ( <= ( + T4 430 )  ( + T8 832 ) ) ( <= ( + T8 905 )( + T4 363 ) ) )
(or ( <= ( + T4 12 ) T9 ) ( <= ( + T9 77 ) T4 ) )
(or ( <= ( + T4 40 )  ( + T9 77 ) ) ( <= ( + T9 148 )( + T4 12 ) ) )
(or ( <= ( + T4 87 )  ( + T9 148 ) ) ( <= ( + T9 167 )( + T4 40 ) ) )
(or ( <= ( + T4 136 )  ( + T9 167 ) ) ( <= ( + T9 176 )( + T4 87 ) ) )
(or ( <= ( + T4 174 )  ( + T9 176 ) ) ( <= ( + T9 227 )( + T4 136 ) ) )
(or ( <= ( + T4 189 )  ( + T9 227 ) ) ( <= ( + T9 292 )( + T4 174 ) ) )
(or ( <= ( + T4 256 )  ( + T9 292 ) ) ( <= ( + T9 322 )( + T4 189 ) ) )
(or ( <= ( + T4 299 )  ( + T9 322 ) ) ( <= ( + T9 368 )( + T4 256 ) ) )
(or ( <= ( + T4 311 )  ( + T9 368 ) ) ( <= ( + T9 393 )( + T4 299 ) ) )
(or ( <= ( + T4 313 )  ( + T9 393 ) ) ( <= ( + T9 486 )( + T4 311 ) ) )
(or ( <= ( + T4 363 )  ( + T9 486 ) ) ( <= ( + T9 491 )( + T4 313 ) ) )
(or ( <= ( + T4 430 )  ( + T9 491 ) ) ( <= ( + T9 582 )( + T4 363 ) ) )
(or ( <= ( + T4 12 ) T10 ) ( <= ( + T10 58 ) T4 ) )
(or ( <= ( + T4 40 )  ( + T10 58 ) ) ( <= ( + T10 87 )( + T4 12 ) ) )
(or ( <= ( + T4 87 )  ( + T10 87 ) ) ( <= ( + T10 118 )( + T4 40 ) ) )
(or ( <= ( + T4 136 )  ( + T10 118 ) ) ( <= ( + T10 166 )( + T4 87 ) ) )
(or ( <= ( + T4 174 )  ( + T10 166 ) ) ( <= ( + T10 194 )( + T4 136 ) ) )
(or ( <= ( + T4 189 )  ( + T10 194 ) ) ( <= ( + T10 237 )( + T4 174 ) ) )
(or ( <= ( + T4 256 )  ( + T10 237 ) ) ( <= ( + T10 304 )( + T4 189 ) ) )
(or ( <= ( + T4 299 )  ( + T10 304 ) ) ( <= ( + T10 401 )( + T4 256 ) ) )
(or ( <= ( + T4 311 )  ( + T10 401 ) ) ( <= ( + T10 432 )( + T4 299 ) ) )
(or ( <= ( + T4 313 )  ( + T10 432 ) ) ( <= ( + T10 472 )( + T4 311 ) ) )
(or ( <= ( + T4 363 )  ( + T10 472 ) ) ( <= ( + T10 499 )( + T4 313 ) ) )
(or ( <= ( + T4 430 )  ( + T10 499 ) ) ( <= ( + T10 522 )( + T4 363 ) ) )
(or ( <= ( + T5 27 ) T6 ) ( <= ( + T6 99 ) T5 ) )
(or ( <= ( + T5 53 )  ( + T6 99 ) ) ( <= ( + T6 157 )( + T5 27 ) ) )
(or ( <= ( + T5 124 )  ( + T6 157 ) ) ( <= ( + T6 171 )( + T5 53 ) ) )
(or ( <= ( + T5 145 )  ( + T6 171 ) ) ( <= ( + T6 265 )( + T5 124 ) ) )
(or ( <= ( + T5 223 )  ( + T6 265 ) ) ( <= ( + T6 348 )( + T5 145 ) ) )
(or ( <= ( + T5 245 )  ( + T6 348 ) ) ( <= ( + T6 353 )( + T5 223 ) ) )
(or ( <= ( + T5 321 )  ( + T6 353 ) ) ( <= ( + T6 388 )( + T5 245 ) ) )
(or ( <= ( + T5 376 )  ( + T6 388 ) ) ( <= ( + T6 482 )( + T5 321 ) ) )
(or ( <= ( + T5 386 )  ( + T6 482 ) ) ( <= ( + T6 514 )( + T5 376 ) ) )
(or ( <= ( + T5 391 )  ( + T6 514 ) ) ( <= ( + T6 595 )( + T5 386 ) ) )
(or ( <= ( + T5 400 )  ( + T6 595 ) ) ( <= ( + T6 690 )( + T5 391 ) ) )
(or ( <= ( + T5 478 )  ( + T6 690 ) ) ( <= ( + T6 760 )( + T5 400 ) ) )
(or ( <= ( + T5 27 ) T7 ) ( <= ( + T7 96 ) T5 ) )
(or ( <= ( + T5 53 )  ( + T7 96 ) ) ( <= ( + T7 157 )( + T5 27 ) ) )
(or ( <= ( + T5 124 )  ( + T7 157 ) ) ( <= ( + T7 169 )( + T5 53 ) ) )
(or ( <= ( + T5 145 )  ( + T7 169 ) ) ( <= ( + T7 176 )( + T5 124 ) ) )
(or ( <= ( + T5 223 )  ( + T7 176 ) ) ( <= ( + T7 190 )( + T5 145 ) ) )
(or ( <= ( + T5 245 )  ( + T7 190 ) ) ( <= ( + T7 203 )( + T5 223 ) ) )
(or ( <= ( + T5 321 )  ( + T7 203 ) ) ( <= ( + T7 228 )( + T5 245 ) ) )
(or ( <= ( + T5 376 )  ( + T7 228 ) ) ( <= ( + T7 269 )( + T5 321 ) ) )
(or ( <= ( + T5 386 )  ( + T7 269 ) ) ( <= ( + T7 360 )( + T5 376 ) ) )
(or ( <= ( + T5 391 )  ( + T7 360 ) ) ( <= ( + T7 408 )( + T5 386 ) ) )
(or ( <= ( + T5 400 )  ( + T7 408 ) ) ( <= ( + T7 469 )( + T5 391 ) ) )
(or ( <= ( + T5 478 )  ( + T7 469 ) ) ( <= ( + T7 537 )( + T5 400 ) ) )
(or ( <= ( + T5 27 ) T8 ) ( <= ( + T8 69 ) T5 ) )
(or ( <= ( + T5 53 )  ( + T8 69 ) ) ( <= ( + T8 157 )( + T5 27 ) ) )
(or ( <= ( + T5 124 )  ( + T8 157 ) ) ( <= ( + T8 231 )( + T5 53 ) ) )
(or ( <= ( + T5 145 )  ( + T8 231 ) ) ( <= ( + T8 310 )( + T5 124 ) ) )
(or ( <= ( + T5 223 )  ( + T8 310 ) ) ( <= ( + T8 403 )( + T5 145 ) ) )
(or ( <= ( + T5 245 )  ( + T8 403 ) ) ( <= ( + T8 485 )( + T5 223 ) ) )
(or ( <= ( + T5 321 )  ( + T8 485 ) ) ( <= ( + T8 493 )( + T5 245 ) ) )
(or ( <= ( + T5 376 )  ( + T8 493 ) ) ( <= ( + T8 584 )( + T5 321 ) ) )
(or ( <= ( + T5 386 )  ( + T8 584 ) ) ( <= ( + T8 675 )( + T5 376 ) ) )
(or ( <= ( + T5 391 )  ( + T8 675 ) ) ( <= ( + T8 748 )( + T5 386 ) ) )
(or ( <= ( + T5 400 )  ( + T8 748 ) ) ( <= ( + T8 832 )( + T5 391 ) ) )
(or ( <= ( + T5 478 )  ( + T8 832 ) ) ( <= ( + T8 905 )( + T5 400 ) ) )
(or ( <= ( + T5 27 ) T9 ) ( <= ( + T9 77 ) T5 ) )
(or ( <= ( + T5 53 )  ( + T9 77 ) ) ( <= ( + T9 148 )( + T5 27 ) ) )
(or ( <= ( + T5 124 )  ( + T9 148 ) ) ( <= ( + T9 167 )( + T5 53 ) ) )
(or ( <= ( + T5 145 )  ( + T9 167 ) ) ( <= ( + T9 176 )( + T5 124 ) ) )
(or ( <= ( + T5 223 )  ( + T9 176 ) ) ( <= ( + T9 227 )( + T5 145 ) ) )
(or ( <= ( + T5 245 )  ( + T9 227 ) ) ( <= ( + T9 292 )( + T5 223 ) ) )
(or ( <= ( + T5 321 )  ( + T9 292 ) ) ( <= ( + T9 322 )( + T5 245 ) ) )
(or ( <= ( + T5 376 )  ( + T9 322 ) ) ( <= ( + T9 368 )( + T5 321 ) ) )
(or ( <= ( + T5 386 )  ( + T9 368 ) ) ( <= ( + T9 393 )( + T5 376 ) ) )
(or ( <= ( + T5 391 )  ( + T9 393 ) ) ( <= ( + T9 486 )( + T5 386 ) ) )
(or ( <= ( + T5 400 )  ( + T9 486 ) ) ( <= ( + T9 491 )( + T5 391 ) ) )
(or ( <= ( + T5 478 )  ( + T9 491 ) ) ( <= ( + T9 582 )( + T5 400 ) ) )
(or ( <= ( + T5 27 ) T10 ) ( <= ( + T10 58 ) T5 ) )
(or ( <= ( + T5 53 )  ( + T10 58 ) ) ( <= ( + T10 87 )( + T5 27 ) ) )
(or ( <= ( + T5 124 )  ( + T10 87 ) ) ( <= ( + T10 118 )( + T5 53 ) ) )
(or ( <= ( + T5 145 )  ( + T10 118 ) ) ( <= ( + T10 166 )( + T5 124 ) ) )
(or ( <= ( + T5 223 )  ( + T10 166 ) ) ( <= ( + T10 194 )( + T5 145 ) ) )
(or ( <= ( + T5 245 )  ( + T10 194 ) ) ( <= ( + T10 237 )( + T5 223 ) ) )
(or ( <= ( + T5 321 )  ( + T10 237 ) ) ( <= ( + T10 304 )( + T5 245 ) ) )
(or ( <= ( + T5 376 )  ( + T10 304 ) ) ( <= ( + T10 401 )( + T5 321 ) ) )
(or ( <= ( + T5 386 )  ( + T10 401 ) ) ( <= ( + T10 432 )( + T5 376 ) ) )
(or ( <= ( + T5 391 )  ( + T10 432 ) ) ( <= ( + T10 472 )( + T5 386 ) ) )
(or ( <= ( + T5 400 )  ( + T10 472 ) ) ( <= ( + T10 499 )( + T5 391 ) ) )
(or ( <= ( + T5 478 )  ( + T10 499 ) ) ( <= ( + T10 522 )( + T5 400 ) ) )
(or ( <= ( + T6 99 ) T7 ) ( <= ( + T7 96 ) T6 ) )
(or ( <= ( + T6 157 )  ( + T7 96 ) ) ( <= ( + T7 157 )( + T6 99 ) ) )
(or ( <= ( + T6 171 )  ( + T7 157 ) ) ( <= ( + T7 169 )( + T6 157 ) ) )
(or ( <= ( + T6 265 )  ( + T7 169 ) ) ( <= ( + T7 176 )( + T6 171 ) ) )
(or ( <= ( + T6 348 )  ( + T7 176 ) ) ( <= ( + T7 190 )( + T6 265 ) ) )
(or ( <= ( + T6 353 )  ( + T7 190 ) ) ( <= ( + T7 203 )( + T6 348 ) ) )
(or ( <= ( + T6 388 )  ( + T7 203 ) ) ( <= ( + T7 228 )( + T6 353 ) ) )
(or ( <= ( + T6 482 )  ( + T7 228 ) ) ( <= ( + T7 269 )( + T6 388 ) ) )
(or ( <= ( + T6 514 )  ( + T7 269 ) ) ( <= ( + T7 360 )( + T6 482 ) ) )
(or ( <= ( + T6 595 )  ( + T7 360 ) ) ( <= ( + T7 408 )( + T6 514 ) ) )
(or ( <= ( + T6 690 )  ( + T7 408 ) ) ( <= ( + T7 469 )( + T6 595 ) ) )
(or ( <= ( + T6 760 )  ( + T7 469 ) ) ( <= ( + T7 537 )( + T6 690 ) ) )
(or ( <= ( + T6 99 ) T8 ) ( <= ( + T8 69 ) T6 ) )
(or ( <= ( + T6 157 )  ( + T8 69 ) ) ( <= ( + T8 157 )( + T6 99 ) ) )
(or ( <= ( + T6 171 )  ( + T8 157 ) ) ( <= ( + T8 231 )( + T6 157 ) ) )
(or ( <= ( + T6 265 )  ( + T8 231 ) ) ( <= ( + T8 310 )( + T6 171 ) ) )
(or ( <= ( + T6 348 )  ( + T8 310 ) ) ( <= ( + T8 403 )( + T6 265 ) ) )
(or ( <= ( + T6 353 )  ( + T8 403 ) ) ( <= ( + T8 485 )( + T6 348 ) ) )
(or ( <= ( + T6 388 )  ( + T8 485 ) ) ( <= ( + T8 493 )( + T6 353 ) ) )
(or ( <= ( + T6 482 )  ( + T8 493 ) ) ( <= ( + T8 584 )( + T6 388 ) ) )
(or ( <= ( + T6 514 )  ( + T8 584 ) ) ( <= ( + T8 675 )( + T6 482 ) ) )
(or ( <= ( + T6 595 )  ( + T8 675 ) ) ( <= ( + T8 748 )( + T6 514 ) ) )
(or ( <= ( + T6 690 )  ( + T8 748 ) ) ( <= ( + T8 832 )( + T6 595 ) ) )
(or ( <= ( + T6 760 )  ( + T8 832 ) ) ( <= ( + T8 905 )( + T6 690 ) ) )
(or ( <= ( + T6 99 ) T9 ) ( <= ( + T9 77 ) T6 ) )
(or ( <= ( + T6 157 )  ( + T9 77 ) ) ( <= ( + T9 148 )( + T6 99 ) ) )
(or ( <= ( + T6 171 )  ( + T9 148 ) ) ( <= ( + T9 167 )( + T6 157 ) ) )
(or ( <= ( + T6 265 )  ( + T9 167 ) ) ( <= ( + T9 176 )( + T6 171 ) ) )
(or ( <= ( + T6 348 )  ( + T9 176 ) ) ( <= ( + T9 227 )( + T6 265 ) ) )
(or ( <= ( + T6 353 )  ( + T9 227 ) ) ( <= ( + T9 292 )( + T6 348 ) ) )
(or ( <= ( + T6 388 )  ( + T9 292 ) ) ( <= ( + T9 322 )( + T6 353 ) ) )
(or ( <= ( + T6 482 )  ( + T9 322 ) ) ( <= ( + T9 368 )( + T6 388 ) ) )
(or ( <= ( + T6 514 )  ( + T9 368 ) ) ( <= ( + T9 393 )( + T6 482 ) ) )
(or ( <= ( + T6 595 )  ( + T9 393 ) ) ( <= ( + T9 486 )( + T6 514 ) ) )
(or ( <= ( + T6 690 )  ( + T9 486 ) ) ( <= ( + T9 491 )( + T6 595 ) ) )
(or ( <= ( + T6 760 )  ( + T9 491 ) ) ( <= ( + T9 582 )( + T6 690 ) ) )
(or ( <= ( + T6 99 ) T10 ) ( <= ( + T10 58 ) T6 ) )
(or ( <= ( + T6 157 )  ( + T10 58 ) ) ( <= ( + T10 87 )( + T6 99 ) ) )
(or ( <= ( + T6 171 )  ( + T10 87 ) ) ( <= ( + T10 118 )( + T6 157 ) ) )
(or ( <= ( + T6 265 )  ( + T10 118 ) ) ( <= ( + T10 166 )( + T6 171 ) ) )
(or ( <= ( + T6 348 )  ( + T10 166 ) ) ( <= ( + T10 194 )( + T6 265 ) ) )
(or ( <= ( + T6 353 )  ( + T10 194 ) ) ( <= ( + T10 237 )( + T6 348 ) ) )
(or ( <= ( + T6 388 )  ( + T10 237 ) ) ( <= ( + T10 304 )( + T6 353 ) ) )
(or ( <= ( + T6 482 )  ( + T10 304 ) ) ( <= ( + T10 401 )( + T6 388 ) ) )
(or ( <= ( + T6 514 )  ( + T10 401 ) ) ( <= ( + T10 432 )( + T6 482 ) ) )
(or ( <= ( + T6 595 )  ( + T10 432 ) ) ( <= ( + T10 472 )( + T6 514 ) ) )
(or ( <= ( + T6 690 )  ( + T10 472 ) ) ( <= ( + T10 499 )( + T6 595 ) ) )
(or ( <= ( + T6 760 )  ( + T10 499 ) ) ( <= ( + T10 522 )( + T6 690 ) ) )
(or ( <= ( + T7 96 ) T8 ) ( <= ( + T8 69 ) T7 ) )
(or ( <= ( + T7 157 )  ( + T8 69 ) ) ( <= ( + T8 157 )( + T7 96 ) ) )
(or ( <= ( + T7 169 )  ( + T8 157 ) ) ( <= ( + T8 231 )( + T7 157 ) ) )
(or ( <= ( + T7 176 )  ( + T8 231 ) ) ( <= ( + T8 310 )( + T7 169 ) ) )
(or ( <= ( + T7 190 )  ( + T8 310 ) ) ( <= ( + T8 403 )( + T7 176 ) ) )
(or ( <= ( + T7 203 )  ( + T8 403 ) ) ( <= ( + T8 485 )( + T7 190 ) ) )
(or ( <= ( + T7 228 )  ( + T8 485 ) ) ( <= ( + T8 493 )( + T7 203 ) ) )
(or ( <= ( + T7 269 )  ( + T8 493 ) ) ( <= ( + T8 584 )( + T7 228 ) ) )
(or ( <= ( + T7 360 )  ( + T8 584 ) ) ( <= ( + T8 675 )( + T7 269 ) ) )
(or ( <= ( + T7 408 )  ( + T8 675 ) ) ( <= ( + T8 748 )( + T7 360 ) ) )
(or ( <= ( + T7 469 )  ( + T8 748 ) ) ( <= ( + T8 832 )( + T7 408 ) ) )
(or ( <= ( + T7 537 )  ( + T8 832 ) ) ( <= ( + T8 905 )( + T7 469 ) ) )
(or ( <= ( + T7 96 ) T9 ) ( <= ( + T9 77 ) T7 ) )
(or ( <= ( + T7 157 )  ( + T9 77 ) ) ( <= ( + T9 148 )( + T7 96 ) ) )
(or ( <= ( + T7 169 )  ( + T9 148 ) ) ( <= ( + T9 167 )( + T7 157 ) ) )
(or ( <= ( + T7 176 )  ( + T9 167 ) ) ( <= ( + T9 176 )( + T7 169 ) ) )
(or ( <= ( + T7 190 )  ( + T9 176 ) ) ( <= ( + T9 227 )( + T7 176 ) ) )
(or ( <= ( + T7 203 )  ( + T9 227 ) ) ( <= ( + T9 292 )( + T7 190 ) ) )
(or ( <= ( + T7 228 )  ( + T9 292 ) ) ( <= ( + T9 322 )( + T7 203 ) ) )
(or ( <= ( + T7 269 )  ( + T9 322 ) ) ( <= ( + T9 368 )( + T7 228 ) ) )
(or ( <= ( + T7 360 )  ( + T9 368 ) ) ( <= ( + T9 393 )( + T7 269 ) ) )
(or ( <= ( + T7 408 )  ( + T9 393 ) ) ( <= ( + T9 486 )( + T7 360 ) ) )
(or ( <= ( + T7 469 )  ( + T9 486 ) ) ( <= ( + T9 491 )( + T7 408 ) ) )
(or ( <= ( + T7 537 )  ( + T9 491 ) ) ( <= ( + T9 582 )( + T7 469 ) ) )
(or ( <= ( + T7 96 ) T10 ) ( <= ( + T10 58 ) T7 ) )
(or ( <= ( + T7 157 )  ( + T10 58 ) ) ( <= ( + T10 87 )( + T7 96 ) ) )
(or ( <= ( + T7 169 )  ( + T10 87 ) ) ( <= ( + T10 118 )( + T7 157 ) ) )
(or ( <= ( + T7 176 )  ( + T10 118 ) ) ( <= ( + T10 166 )( + T7 169 ) ) )
(or ( <= ( + T7 190 )  ( + T10 166 ) ) ( <= ( + T10 194 )( + T7 176 ) ) )
(or ( <= ( + T7 203 )  ( + T10 194 ) ) ( <= ( + T10 237 )( + T7 190 ) ) )
(or ( <= ( + T7 228 )  ( + T10 237 ) ) ( <= ( + T10 304 )( + T7 203 ) ) )
(or ( <= ( + T7 269 )  ( + T10 304 ) ) ( <= ( + T10 401 )( + T7 228 ) ) )
(or ( <= ( + T7 360 )  ( + T10 401 ) ) ( <= ( + T10 432 )( + T7 269 ) ) )
(or ( <= ( + T7 408 )  ( + T10 432 ) ) ( <= ( + T10 472 )( + T7 360 ) ) )
(or ( <= ( + T7 469 )  ( + T10 472 ) ) ( <= ( + T10 499 )( + T7 408 ) ) )
(or ( <= ( + T7 537 )  ( + T10 499 ) ) ( <= ( + T10 522 )( + T7 469 ) ) )
(or ( <= ( + T8 69 ) T9 ) ( <= ( + T9 77 ) T8 ) )
(or ( <= ( + T8 157 )  ( + T9 77 ) ) ( <= ( + T9 148 )( + T8 69 ) ) )
(or ( <= ( + T8 231 )  ( + T9 148 ) ) ( <= ( + T9 167 )( + T8 157 ) ) )
(or ( <= ( + T8 310 )  ( + T9 167 ) ) ( <= ( + T9 176 )( + T8 231 ) ) )
(or ( <= ( + T8 403 )  ( + T9 176 ) ) ( <= ( + T9 227 )( + T8 310 ) ) )
(or ( <= ( + T8 485 )  ( + T9 227 ) ) ( <= ( + T9 292 )( + T8 403 ) ) )
(or ( <= ( + T8 493 )  ( + T9 292 ) ) ( <= ( + T9 322 )( + T8 485 ) ) )
(or ( <= ( + T8 584 )  ( + T9 322 ) ) ( <= ( + T9 368 )( + T8 493 ) ) )
(or ( <= ( + T8 675 )  ( + T9 368 ) ) ( <= ( + T9 393 )( + T8 584 ) ) )
(or ( <= ( + T8 748 )  ( + T9 393 ) ) ( <= ( + T9 486 )( + T8 675 ) ) )
(or ( <= ( + T8 832 )  ( + T9 486 ) ) ( <= ( + T9 491 )( + T8 748 ) ) )
(or ( <= ( + T8 905 )  ( + T9 491 ) ) ( <= ( + T9 582 )( + T8 832 ) ) )
(or ( <= ( + T8 69 ) T10 ) ( <= ( + T10 58 ) T8 ) )
(or ( <= ( + T8 157 )  ( + T10 58 ) ) ( <= ( + T10 87 )( + T8 69 ) ) )
(or ( <= ( + T8 231 )  ( + T10 87 ) ) ( <= ( + T10 118 )( + T8 157 ) ) )
(or ( <= ( + T8 310 )  ( + T10 118 ) ) ( <= ( + T10 166 )( + T8 231 ) ) )
(or ( <= ( + T8 403 )  ( + T10 166 ) ) ( <= ( + T10 194 )( + T8 310 ) ) )
(or ( <= ( + T8 485 )  ( + T10 194 ) ) ( <= ( + T10 237 )( + T8 403 ) ) )
(or ( <= ( + T8 493 )  ( + T10 237 ) ) ( <= ( + T10 304 )( + T8 485 ) ) )
(or ( <= ( + T8 584 )  ( + T10 304 ) ) ( <= ( + T10 401 )( + T8 493 ) ) )
(or ( <= ( + T8 675 )  ( + T10 401 ) ) ( <= ( + T10 432 )( + T8 584 ) ) )
(or ( <= ( + T8 748 )  ( + T10 432 ) ) ( <= ( + T10 472 )( + T8 675 ) ) )
(or ( <= ( + T8 832 )  ( + T10 472 ) ) ( <= ( + T10 499 )( + T8 748 ) ) )
(or ( <= ( + T8 905 )  ( + T10 499 ) ) ( <= ( + T10 522 )( + T8 832 ) ) )
(or ( <= ( + T9 77 ) T10 ) ( <= ( + T10 58 ) T9 ) )
(or ( <= ( + T9 148 )  ( + T10 58 ) ) ( <= ( + T10 87 )( + T9 77 ) ) )
(or ( <= ( + T9 167 )  ( + T10 87 ) ) ( <= ( + T10 118 )( + T9 148 ) ) )
(or ( <= ( + T9 176 )  ( + T10 118 ) ) ( <= ( + T10 166 )( + T9 167 ) ) )
(or ( <= ( + T9 227 )  ( + T10 166 ) ) ( <= ( + T10 194 )( + T9 176 ) ) )
(or ( <= ( + T9 292 )  ( + T10 194 ) ) ( <= ( + T10 237 )( + T9 227 ) ) )
(or ( <= ( + T9 322 )  ( + T10 237 ) ) ( <= ( + T10 304 )( + T9 292 ) ) )
(or ( <= ( + T9 368 )  ( + T10 304 ) ) ( <= ( + T10 401 )( + T9 322 ) ) )
(or ( <= ( + T9 393 )  ( + T10 401 ) ) ( <= ( + T10 432 )( + T9 368 ) ) )
(or ( <= ( + T9 486 )  ( + T10 432 ) ) ( <= ( + T10 472 )( + T9 393 ) ) )
(or ( <= ( + T9 491 )  ( + T10 472 ) ) ( <= ( + T10 499 )( + T9 486 ) ) )
(or ( <= ( + T9 582 )  ( + T10 499 ) ) ( <= ( + T10 522 )( + T9 491 ) ) )
( <= ( + T1 510 ) Z)
( <= ( + T2 595 ) Z)
( <= ( + T3 639 ) Z)
( <= ( + T4 430 ) Z)
( <= ( + T5 478 ) Z)
( <= ( + T6 760 ) Z)
( <= ( + T7 537 ) Z)
( <= ( + T8 905 ) Z)
( <= ( + T9 582 ) Z)
( <= ( + T10 522 ) Z)
( >= T1 0 )
( >= T2 0 )
( >= T3 0 )
( >= T4 0 )
( >= T5 0 )
( >= T6 0 )
( >= T7 0 )
( >= T8 0 )
( >= T9 0 )
( >= T10 0 )
) )
(minimize Z)
(check-sat)